Problem:    sq
Rows:       23
Columns:    24 (12 integer, 12 binary)
Non-zeros:  68
Status:     INTEGER OPTIMAL
Objective:  Custo = 3573 (MINimum)

   No.   Row name        Activity     Lower bound   Upper bound
------ ------------    ------------- ------------- -------------
     1 Custo                    3573                             
     2 c1[L1,L2]               -9686         -9924               
     3 c1[L1,L3]               -9924         -9924               
     4 c1[L1,L4]               -9787         -9924               
     5 c1[L2,L1]                -317         -9788               
     6 c1[L2,L3]                -238         -9788               
     7 c1[L2,L4]                -101         -9788               
     8 c1[L3,L1]                 -79         -9866               
     9 c1[L3,L2]               -9765         -9866               
    10 c1[L3,L4]               -9866         -9866               
    11 c1[L4,L1]                -216         -9902               
    12 c1[L4,L2]               -9902         -9902               
    13 c1[L4,L3]                -137         -9902               
    14 c2[L1,L2]                   1             1             = 
    15 c2[L1,L3]                   1             1             = 
    16 c2[L1,L4]                   1             1             = 
    17 c2[L2,L3]                   1             1             = 
    18 c2[L2,L4]                   1             1             = 
    19 c2[L3,L4]                   1             1             = 
    20 c3[L1]                     74            74             = 
    21 c3[L2]                     28            28             = 
    22 c3[L3]                    166           166             = 
    23 c3[L4]                    196           196             = 

   No. Column name       Activity     Lower bound   Upper bound
------ ------------    ------------- ------------- -------------
     1 S[L1]                       0             0               
     2 S[L2]                     317             0               
     3 S[L3]                      79             0               
     4 S[L4]                     216             0               
     5 T[L1]                       0             0               
     6 T[L2]                     289             0               
     7 T[L3]                       0             0               
     8 T[L4]                      20             0               
     9 E[L1]                      74             0               
    10 E[L2]                       0             0               
    11 E[L3]                      87             0               
    12 E[L4]                       0             0               
    13 x[L1,L2]     *              1             0             1 
    14 x[L1,L3]     *              1             0             1 
    15 x[L1,L4]     *              1             0             1 
    16 x[L2,L1]     *              0             0             1 
    17 x[L2,L3]     *              0             0             1 
    18 x[L2,L4]     *              0             0             1 
    19 x[L3,L1]     *              0             0             1 
    20 x[L3,L2]     *              1             0             1 
    21 x[L3,L4]     *              1             0             1 
    22 x[L4,L1]     *              0             0             1 
    23 x[L4,L2]     *              1             0             1 
    24 x[L4,L3]     *              0             0             1 

Integer feasibility conditions:

KKT.PE: max.abs.err = 0.00e+00 on row 0
        max.rel.err = 0.00e+00 on row 0
        High quality

KKT.PB: max.abs.err = 0.00e+00 on row 0
        max.rel.err = 0.00e+00 on row 0
        High quality

End of output
